Route #1: 49 19 58 12 88 96 54 68 41
Route #2: 52 14 38 108 3 21 75 50
Route #3: 91 6 109 18 103 25 56 30 69
Route #4: 55 76 102 9 33 4 101 24 84
Route #5: 80 2 61 22 83 60 104 93 43
Route #6: 99 64 36 65 17 59 31 39
Route #7: 71 27 95 28 5 46 89 45
Route #8: 74 20 92 97 42 106 34 67
Route #9: 87 26 53 15 66 98 11 85 51
Route #10: 105 32 79 1 90 16 44 70
Route #11: 82 107 94 37 7 81 23 57
Route #12: 48 73 35 86 47 10 72 63
Route #13: 62 8 100 40 13 78 29 77
Cost 18547
